Solving original (integer) problem with strategy gdp.hull_exact_conic_no_cholesky...
--- Job model.gms Start 02/16/26 01:05:16 52.2.0 d8e408be LEX-LEG x86 64bit/Linux
--- Applying:
    /package/gams/52.2/gmsprmun.txt
--- GAMS Parameters defined
    Input /local/scratch/a/sgusev/repos/k_means/data/gams_scip_gdp.hull_exact_conic_no_cholesky/no_mode/2026-02-16_01-05-15/original/model.gms
    Output /local/scratch/a/sgusev/repos/k_means/data/gams_scip_gdp.hull_exact_conic_no_cholesky/no_mode/2026-02-16_01-05-15/original/output.lst
    ScrDir /local/scratch/a/sgusev/repos/k_means/data/gams_scip_gdp.hull_exact_conic_no_cholesky/no_mode/2026-02-16_01-05-15/original/225a/
    SysDir /package/gams/52.2/
    CurDir /local/scratch/a/sgusev/repos/k_means/data/gams_scip_gdp.hull_exact_conic_no_cholesky/no_mode/2026-02-16_01-05-15/original/
    LogOption 3
    AppendLog 1
Licensee: David Bernal / SECQUOIA Research Group         G251008+0003Ac-GEN
          Purdue University, Davidson School of Chemical EngineeringDCE4838
          225a/gamslice.dat
          5a82958a-fbca-4a23
          node:66820903 mem:995 cores:48 ipport:50977 v:2                  
          Evaluation license: Not for commercial or production use
          The time-limited license stops working on : Jun 30, 2027
System information: 48 physical cores and 995 Gb physical memory detected
GAMS 52.2.0   Copyright (C) 1987-2025 GAMS Development. All rights reserved
--- Starting compilation
--- model.gms(3757) 2 Mb
--- $echo File /local/scratch/a/sgusev/repos/k_means/data/gams_scip_gdp.hull_exact_conic_no_cholesky/no_mode/2026-02-16_01-05-15/original/scip.opt
--- model.gms(5519) 2 Mb
--- Starting execution: elapsed 0:00:00.020
--- model.gms(3767) 3 Mb
--- Generating MINLP model GAMS_MODEL
--- model.gms(3771) 6 Mb
---   1,144 rows  551 columns  2,987 non-zeroes
---   760 nl-code  280 nl-non-zeroes
---   40 discrete-columns
--- Range statistics (absolute non-zero finite values)
--- RHS       [min, max] : [ 1.000E+00, 1.000E+00] - Zero values observed as well
--- Bound     [min, max] : [ 1.000E+00, 1.000E+02] - Zero values observed as well
--- Matrix    [min, max] : [ 8.325E-02, 1.000E+02] - Zero values observed as well
--- model.gms(3771) 4 Mb
--- Executing SCIP (Solvelink=5): elapsed 0:00:00.026

SCIP             52.2.0 d8e408be Dec 8, 2025           LEG x86 64bit/Linux    
SCIP version 9.2.4 (a94f778ac8)
Copyright (c) 2002-2025 Zuse Institute Berlin (ZIB)

External libraries: 
  CPLEX 22.1.2.0       Linear Programming Solver developed by IBM (www.cplex.com)
  CppAD 20180000.0     Algorithmic Differentiation of C++ algorithms developed by B. Bell (github.com/coin-or/CppAD)
  PaPILO 2.4.4         parallel presolve for integer and linear optimization (github.com/scipopt/papilo) (built with TBB) [GitHash: 7c826d50]
  Nauty 2.8.9          Computing Graph Automorphism Groups by Brendan D. McKay (users.cecs.anu.edu.au/~bdm/nauty)
  sassy 1.1            Symmetry preprocessor by Markus Anders (github.com/markusa4/sassy)
  Ipopt 3.14.19        Interior Point Optimizer developed by A. Waechter et.al. (github.com/coin-or/Ipopt)

reading option file /local/scratch/a/sgusev/repos/k_means/data/gams_scip_gdp.hull_exact_conic_no_cholesky/no_mode/2026-02-16_01-05-15/original/scip.opt
non-default parameter settings:
limits/time = 300
limits/gap = 1e-06
limits/absgap = 1e-10
lp/threads = 1
misc/printreason = FALSE
numerics/dualfeastol = 1e-06
parallel/maxnthreads = 1
nlpi/ipopt/linear_solver = "ma27"
nlpi/ipopt/linear_system_scaling = "mc19"

original problem has 550 variables (40 bin, 0 int, 510 cont) and 1143 constraints

all 1 solutions given by solution candidate storage are infeasible

presolving:
(round 1, fast)       10 del vars, 0 del conss, 0 add conss, 40 chg bounds, 0 chg sides, 0 chg coeffs, 0 upgd conss, 0 impls, 10 clqs
(round 2, fast)       10 del vars, 0 del conss, 0 add conss, 40 chg bounds, 10 chg sides, 0 chg coeffs, 0 upgd conss, 0 impls, 10 clqs
(round 3, exhaustive) 10 del vars, 0 del conss, 0 add conss, 40 chg bounds, 10 chg sides, 0 chg coeffs, 850 upgd conss, 0 impls, 10 clqs
   (0.0s) probing cycle finished: starting next cycle
   (0.0s) symmetry computation started: requiring (bin +, int +, cont +), (fixed: bin -, int -, cont -)
   (0.0s) no symmetry present (symcode time: 0.00)
presolving (4 rounds: 4 fast, 2 medium, 2 exhaustive):
 10 deleted vars, 0 deleted constraints, 0 added constraints, 40 tightened bounds, 0 added holes, 10 changed sides, 0 changed coefficients
 2320 implications, 10 cliques
presolved problem has 540 variables (40 bin, 0 int, 0 impl, 500 cont) and 1143 constraints
    840 constraints of type <varbound>
     10 constraints of type <setppc>
    253 constraints of type <linear>
     40 constraints of type <nonlinear>
Presolving Time: 0.02

 time | node  | left  |LP iter|LP it/n|mem/heur|mdpt |vars |cons |rows |cuts |sepa|confs|strbr|  dualbound   | primalbound  |  gap   | compl. 
  0.1s|     1 |     0 |   944 |     - |    11M |   0 | 820 |1143 |1823 |   0 |  0 |   0 |   0 | 0.000000e+00 |      --      |    Inf | unknown
o 0.1s|     1 |     0 |  1085 |     - |feaspump|   0 | 820 |1143 |1823 |   0 |  0 |   0 |   0 | 0.000000e+00 | 7.481229e+00 |    Inf | unknown
  0.2s|     1 |     0 |  1364 |     - |    12M |   0 | 820 |1143 |2010 | 187 |  1 |   0 |   0 | 0.000000e+00 | 7.481229e+00 |    Inf | unknown
  0.2s|     1 |     0 |  1364 |     - |    12M |   0 | 820 |1143 |2000 | 187 |  1 |   0 |   0 | 0.000000e+00 | 7.481229e+00 |    Inf | unknown
  0.2s|     1 |     0 |  1609 |     - |    12M |   0 | 820 |1143 |2177 | 364 |  2 |   0 |   0 | 0.000000e+00 | 7.481229e+00 |    Inf | unknown
  0.3s|     1 |     0 |  1869 |     - |    13M |   0 | 820 |1143 |2353 | 540 |  3 |   0 |   0 | 0.000000e+00 | 7.481229e+00 |    Inf | unknown
  0.3s|     1 |     0 |  2127 |     - |    13M |   0 | 820 |1143 |2518 | 705 |  4 |   0 |   0 | 0.000000e+00 | 7.481229e+00 |    Inf | unknown
  0.3s|     1 |     0 |  2356 |     - |    14M |   0 | 820 |1143 |2677 | 864 |  5 |   0 |   0 | 0.000000e+00 | 7.481229e+00 |    Inf | unknown
  0.4s|     1 |     0 |  2636 |     - |    14M |   0 | 820 |1143 |2829 |1016 |  6 |   0 |   0 | 0.000000e+00 | 7.481229e+00 |    Inf | unknown
  0.4s|     1 |     0 |  2976 |     - |    16M |   0 | 820 |1143 |2974 |1161 |  7 |   0 |   0 | 0.000000e+00 | 7.481229e+00 |    Inf | unknown
  0.4s|     1 |     0 |  3299 |     - |    16M |   0 | 820 |1143 |3122 |1309 |  8 |   0 |   0 | 0.000000e+00 | 7.481229e+00 |    Inf | unknown
  0.5s|     1 |     0 |  3561 |     - |    16M |   0 | 820 |1143 |3235 |1422 |  9 |   0 |   0 | 0.000000e+00 | 7.481229e+00 |    Inf | unknown
  0.5s|     1 |     0 |  3745 |     - |    17M |   0 | 820 |1143 |2680 |1524 | 10 |   0 |   0 | 0.000000e+00 | 7.481229e+00 |    Inf | unknown
  0.5s|     1 |     0 |  3916 |     - |    17M |   0 | 820 |1143 |2762 |1606 | 11 |   0 |   0 | 0.000000e+00 | 7.481229e+00 |    Inf | unknown
  0.5s|     1 |     0 |  3916 |     - |    17M |   0 | 820 |1133 |2762 |1606 | 11 |   0 |   0 | 0.000000e+00 | 7.481229e+00 |    Inf | unknown
 time | node  | left  |LP iter|LP it/n|mem/heur|mdpt |vars |cons |rows |cuts |sepa|confs|strbr|  dualbound   | primalbound  |  gap   | compl. 
  0.6s|     1 |     0 |  4142 |     - |    18M |   0 | 820 |1133 |2849 |1693 | 12 |   0 |   0 | 0.000000e+00 | 7.481229e+00 |    Inf | unknown
  0.6s|     1 |     0 |  4350 |     - |    18M |   0 | 820 |1133 |2921 |1765 | 13 |   0 |   0 | 0.000000e+00 | 7.481229e+00 |    Inf | unknown
  0.6s|     1 |     0 |  4459 |     - |    18M |   0 | 820 |1133 |2980 |1824 | 14 |   0 |   0 | 0.000000e+00 | 7.481229e+00 |    Inf | unknown
  0.6s|     1 |     0 |  4603 |     - |    18M |   0 | 820 |1133 |3009 |1853 | 15 |   0 |   0 | 0.000000e+00 | 7.481229e+00 |    Inf | unknown
  0.7s|     1 |     0 |  4688 |     - |    19M |   0 | 820 |1133 |2134 |1890 | 16 |   0 |   0 | 0.000000e+00 | 7.481229e+00 |    Inf | unknown
  0.7s|     1 |     0 |  4759 |     - |    19M |   0 | 820 |1133 |2150 |1906 | 17 |   0 |   0 | 0.000000e+00 | 7.481229e+00 |    Inf | unknown
  0.7s|     1 |     0 |  4773 |     - |    19M |   0 | 820 |1133 |2158 |1914 | 18 |   0 |   0 | 0.000000e+00 | 7.481229e+00 |    Inf | unknown
  0.7s|     1 |     0 |  4814 |     - |    20M |   0 | 820 |1133 |2161 |1917 | 19 |   0 |   0 | 0.000000e+00 | 7.481229e+00 |    Inf | unknown
  0.7s|     1 |     0 |  4836 |     - |    20M |   0 | 820 |1133 |2171 |1927 | 20 |   0 |   0 | 0.000000e+00 | 7.481229e+00 |    Inf | unknown
  0.7s|     1 |     0 |  4854 |     - |    20M |   0 | 820 |1133 |2176 |1932 | 21 |   0 |   0 | 0.000000e+00 | 7.481229e+00 |    Inf | unknown
  0.7s|     1 |     0 |  4855 |     - |    20M |   0 | 820 |1133 |1658 |1933 | 22 |   0 |   0 | 0.000000e+00 | 7.481229e+00 |    Inf | unknown
  1.7s|     1 |     0 |  5080 |     - |    20M |   0 | 820 |1133 |1658 |1933 | 22 |   0 |   4 | 0.000000e+00 | 7.481229e+00 |    Inf | unknown
  1.8s|     1 |     0 |  5080 |     - |    20M |   0 | 820 |1133 |1658 |1933 | 23 |   0 |   9 | 0.000000e+00 | 7.481229e+00 |    Inf | unknown
  1.9s|     1 |     0 |  5080 |     - |    20M |   0 | 820 |1133 |1658 |1933 | 24 |   0 |  12 | 0.000000e+00 | 7.481229e+00 |    Inf | unknown
  1.9s|     1 |     0 |  5080 |     - |    20M |   0 | 820 |1133 |1658 |1933 | 25 |   0 |  16 | 0.000000e+00 | 7.481229e+00 |    Inf | unknown
 time | node  | left  |LP iter|LP it/n|mem/heur|mdpt |vars |cons |rows |cuts |sepa|confs|strbr|  dualbound   | primalbound  |  gap   | compl. 
  2.0s|     1 |     0 |  5080 |     - |    20M |   0 | 820 |1133 |1658 |1933 | 26 |   0 |  22 | 0.000000e+00 | 7.481229e+00 |    Inf | unknown
  2.1s|     1 |     0 |  5080 |     - |    20M |   0 | 820 |1133 |1658 |1933 | 27 |   0 |  24 | 0.000000e+00 | 7.481229e+00 |    Inf | unknown
  2.1s|     1 |     2 |  5080 |     - |    20M |   0 | 820 |1133 |1658 |1933 | 28 |   0 |  24 | 0.000000e+00 | 7.481229e+00 |    Inf | unknown
d 3.5s|    25 |    19 | 19220 | 610.0 |pscostdi|   9 | 820 |1142 |2235 |6880 |  7 |   9 |  98 | 0.000000e+00 | 4.944440e+00 |    Inf |   0.57%
d 4.5s|    39 |    31 | 26037 | 564.7 |distribu|  10 | 820 |1144 |2311 |9049 |  7 |  11 | 148 | 0.000000e+00 | 3.763822e+00 |    Inf |   0.84%
o 4.9s|    43 |    34 | 31074 | 630.8 |objpscos|  10 | 820 |1145 |1987 |  10k|  2 |  12 | 148 | 0.000000e+00 | 3.356429e+00 |    Inf |   1.41%
  8.2s|   100 |    91 | 80087 | 762.7 |    32M |  10 | 820 |1175 |1970 |  20k|  2 |  43 | 168 | 0.000000e+00 | 3.356429e+00 |    Inf |   3.71%
d 8.6s|   105 |    95 | 84937 | 772.7 |nlpdivin|  10 | 820 |1178 |1959 |   0 |  2 |  46 | 168 | 0.000000e+00 | 2.889513e+00 |    Inf |   5.28%
 13.4s|   200 |   170 |152749 | 744.6 |    49M |  13 | 820 |1208 |2370 |  38k|  8 | 109 | 174 | 0.000000e+00 | 2.889513e+00 |    Inf |   9.12%
 18.8s|   300 |   250 |224555 | 735.7 |    63M |  15 | 820 |1208 |2363 |  55k|  7 | 173 | 174 | 0.000000e+00 | 2.889513e+00 |    Inf |  11.84%
 24.4s|   400 |   332 |299268 | 738.6 |    83M |  15 | 820 |1208 |2510 |  71k| 14 | 237 | 176 | 0.000000e+00 | 2.889513e+00 |    Inf |  14.44%
 29.1s|   500 |   408 |359293 | 710.8 |   103M |  17 | 820 |1208 |2100 |  88k|  1 | 303 | 182 | 2.514338e-03 | 2.889513e+00 |  Large |  17.39%
*31.8s|   565 |   427 |392509 | 687.8 |    LP  |  18 | 820 |1208 |2805 |  97k| 13 | 346 | 187 | 1.081154e-02 | 2.674804e+00 |  Large |  20.26%
 33.4s|   600 |   454 |410182 | 677.1 |   115M |  18 | 820 |1208 |2232 | 102k|  2 | 360 | 191 | 1.081154e-02 | 2.674804e+00 |  Large |  20.53%
 37.5s|   700 |   506 |460796 | 652.7 |   127M |  18 | 820 |1208 |2532 | 115k| 12 | 434 | 197 | 4.714687e-02 | 2.674804e+00 |5573.34%|  24.38%
 time | node  | left  |LP iter|LP it/n|mem/heur|mdpt |vars |cons |rows |cuts |sepa|confs|strbr|  dualbound   | primalbound  |  gap   | compl. 
 42.2s|   800 |   558 |516915 | 641.2 |   138M |  18 | 820 |1208 |2314 | 130k|  7 | 493 | 205 | 9.052252e-02 | 2.674804e+00 |2854.85%|  26.99%
 45.4s|   900 |   568 |549705 | 606.4 |   146M |  20 | 820 |1208 |2589 | 139k|  0 | 539 | 214 | 1.210233e-01 | 2.674804e+00 |2110.16%|  29.70%
 48.4s|  1000 |   602 |584767 | 580.8 |   153M |  20 | 820 |1209 |2667 | 150k|  5 | 581 | 218 | 1.763107e-01 | 2.674804e+00 |1417.10%|  31.01%
 51.2s|  1100 |   618 |615198 | 555.6 |   157M |  20 | 820 |1209 |2569 | 159k|  9 | 597 | 221 | 2.195179e-01 | 2.674804e+00 |1118.49%|  33.28%
 54.2s|  1200 |   646 |648378 | 536.9 |   165M |  21 | 820 |1209 |2567 | 169k|  0 | 618 | 224 | 2.336218e-01 | 2.674804e+00 |1044.93%|  34.49%
 56.9s|  1300 |   662 |681703 | 521.3 |   172M |  21 | 820 |1209 |2363 | 178k|  0 | 649 | 231 | 2.465606e-01 | 2.674804e+00 | 984.85%|  36.91%
 59.7s|  1400 |   688 |712473 | 506.0 |   174M |  23 | 820 |1209 |2667 | 188k|  8 | 682 | 239 | 2.936445e-01 | 2.674804e+00 | 810.90%|  37.97%
 62.8s|  1500 |   702 |746757 | 495.1 |   182M |  23 | 820 |1209 |2563 | 198k|  6 | 710 | 243 | 3.411000e-01 | 2.674804e+00 | 684.17%|  39.86%
 65.4s|  1600 |   712 |776368 | 482.7 |   184M |  23 | 820 |1209 |2483 | 207k|  0 | 734 | 248 | 3.720302e-01 | 2.674804e+00 | 618.97%|  41.14%
 68.1s|  1700 |   722 |806150 | 471.8 |   188M |  23 | 820 |1209 |2316 | 216k|  6 | 767 | 255 | 3.797506e-01 | 2.674804e+00 | 604.36%|  42.54%
 71.1s|  1800 |   750 |841731 | 465.3 |   198M |  23 | 820 |1209 |2619 | 226k|  2 | 803 | 263 | 3.819673e-01 | 2.674804e+00 | 600.27%|  43.71%
 73.7s|  1900 |   760 |870581 | 456.0 |   204M |  23 | 820 |1209 |2401 | 236k|  1 | 833 | 270 | 3.990921e-01 | 2.674804e+00 | 570.22%|  45.43%
 76.0s|  2000 |   762 |896622 | 446.2 |   206M |  23 | 820 |1209 |   0 | 243k|  0 | 860 | 271 | 4.056228e-01 | 2.674804e+00 | 559.43%|  47.10%
 78.6s|  2100 |   768 |925248 | 438.6 |   210M |  23 | 820 |1209 |2469 | 252k|  1 | 890 | 273 | 5.168286e-01 | 2.674804e+00 | 417.54%|  49.44%
 80.7s|  2200 |   762 |948409 | 429.2 |   212M |  23 | 820 |1210 |2401 | 259k|  0 | 915 | 281 | 5.454817e-01 | 2.674804e+00 | 390.36%|  50.99%
 time | node  | left  |LP iter|LP it/n|mem/heur|mdpt |vars |cons |rows |cuts |sepa|confs|strbr|  dualbound   | primalbound  |  gap   | compl. 
 83.3s|  2300 |   756 |973920 | 421.6 |   216M |  23 | 820 |1210 |2365 | 266k|  6 | 940 | 292 | 5.674362e-01 | 2.674804e+00 | 371.38%|  52.65%
 85.8s|  2400 |   752 |  1001k| 415.6 |   219M |  23 | 820 |1210 |2656 | 274k|  0 | 961 | 297 | 5.812155e-01 | 2.674804e+00 | 360.21%|  54.44%
 88.6s|  2500 |   760 |  1032k| 411.3 |   222M |  23 | 820 |1210 |2680 | 283k|  6 | 987 | 303 | 6.043551e-01 | 2.674804e+00 | 342.59%|  56.02%
 91.0s|  2600 |   754 |  1059k| 405.8 |   227M |  23 | 820 |1210 |2569 | 291k|  6 |1013 | 310 | 6.323880e-01 | 2.674804e+00 | 322.97%|  57.16%
 93.3s|  2700 |   746 |  1083k| 399.7 |   229M |  23 | 820 |1210 |2564 | 298k|  1 |1037 | 314 | 6.668275e-01 | 2.674804e+00 | 301.12%|  58.53%
 96.1s|  2800 |   744 |  1112k| 395.8 |   232M |  23 | 820 |1212 |2724 | 307k| 11 |1059 | 316 | 6.917221e-01 | 2.674804e+00 | 286.69%|  59.66%
 98.7s|  2900 |   734 |  1138k| 391.0 |   233M |  23 | 820 |1212 |2453 | 314k|  0 |1083 | 320 | 7.194536e-01 | 2.674804e+00 | 271.78%|  60.94%
  101s|  3000 |   734 |  1159k| 385.1 |   236M |  23 | 820 |1213 |2520 | 321k|  0 |1103 | 328 | 7.440027e-01 | 2.674804e+00 | 259.52%|  61.68%
  103s|  3100 |   718 |  1182k| 380.1 |   236M |  23 | 820 |1213 |2392 | 328k|  0 |1116 | 329 | 7.837584e-01 | 2.674804e+00 | 241.28%|  63.03%
  105s|  3200 |   714 |  1204k| 375.0 |   237M |  23 | 820 |1213 |2428 | 335k|  1 |1134 | 332 | 8.313803e-01 | 2.674804e+00 | 221.73%|  64.30%
  107s|  3300 |   696 |  1229k| 371.3 |   238M |  23 | 820 |1213 |2331 | 343k|  3 |1161 | 337 | 8.751577e-01 | 2.674804e+00 | 205.64%|  65.95%
  110s|  3400 |   688 |  1259k| 369.3 |   240M |  23 | 820 |1213 |2331 | 352k|  2 |1181 | 341 | 9.831750e-01 | 2.674804e+00 | 172.06%|  67.47%
  113s|  3500 |   672 |  1285k| 366.1 |   244M |  23 | 820 |1214 |2636 | 360k| 12 |1197 | 343 | 1.078887e+00 | 2.674804e+00 | 147.92%|  68.83%
  115s|  3600 |   648 |  1307k| 362.0 |   247M |  23 | 820 |1215 |2608 | 366k|  0 |1215 | 348 | 1.109661e+00 | 2.674804e+00 | 141.05%|  70.05%
  117s|  3700 |   640 |  1329k| 358.1 |   247M |  23 | 820 |1215 |2442 | 373k|  7 |1232 | 355 | 1.112137e+00 | 2.674804e+00 | 140.51%|  70.84%
 time | node  | left  |LP iter|LP it/n|mem/heur|mdpt |vars |cons |rows |cuts |sepa|confs|strbr|  dualbound   | primalbound  |  gap   | compl. 
  119s|  3800 |   614 |  1346k| 353.2 |   248M |  23 | 820 |1215 |3683 | 378k|  4 |1251 | 357 | 1.135852e+00 | 2.674804e+00 | 135.49%|  72.03%
  121s|  3900 |   602 |  1368k| 349.7 |   248M |  23 | 820 |1215 |2547 | 385k|  1 |1270 | 360 | 1.135852e+00 | 2.674804e+00 | 135.49%|  72.41%
  123s|  4000 |   588 |  1392k| 347.1 |   249M |  23 | 820 |1215 |2742 | 392k|  6 |1284 | 360 | 1.197784e+00 | 2.674804e+00 | 123.31%|  73.82%
  126s|  4100 |   574 |  1417k| 344.6 |   251M |  23 | 820 |1215 |2626 | 398k|  2 |1300 | 361 | 1.216132e+00 | 2.674804e+00 | 119.94%|  74.93%
  128s|  4200 |   564 |  1443k| 342.7 |   255M |  23 | 820 |1215 |2557 | 405k|  0 |1311 | 361 | 1.219701e+00 | 2.674804e+00 | 119.30%|  75.76%
  130s|  4300 |   538 |  1459k| 338.5 |   255M |  23 | 820 |1215 |2413 | 410k|  0 |1323 | 361 | 1.284049e+00 | 2.674804e+00 | 108.31%|  76.73%
  132s|  4400 |   524 |  1478k| 335.0 |   255M |  23 | 820 |1215 |2479 | 416k|  6 |1336 | 364 | 1.300412e+00 | 2.674804e+00 | 105.69%|  77.57%
  134s|  4500 |   494 |  1497k| 331.8 |   258M |  23 | 820 |1215 |4189 | 422k|  0 |1350 | 366 | 1.371174e+00 | 2.674804e+00 |  95.07%|  78.94%
  137s|  4600 |   454 |  1517k| 329.0 |   259M |  23 | 820 |1215 |2714 | 427k|  7 |1374 | 370 | 1.477995e+00 | 2.674804e+00 |  80.98%|  81.61%
  139s|  4700 |   412 |  1535k| 325.7 |   260M |  23 | 820 |1215 |2538 | 432k|  2 |1393 | 374 | 1.495930e+00 | 2.674804e+00 |  78.81%|  83.88%
  141s|  4800 |   366 |  1552k| 322.5 |   268M |  23 | 820 |1215 |3491 | 436k|  0 |1410 | 379 | 1.621120e+00 | 2.674804e+00 |  65.00%|  85.87%
  143s|  4900 |   320 |  1572k| 320.1 |   275M |  23 | 820 |1215 |2485 | 441k|  6 |1422 | 381 | 1.707271e+00 | 2.674804e+00 |  56.67%|  87.84%
  146s|  5000 |   286 |  1594k| 318.1 |   292M |  23 | 820 |1216 |4036 | 447k|  0 |1446 | 386 | 1.731618e+00 | 2.674804e+00 |  54.47%|  89.42%
  148s|  5100 |   240 |  1611k| 315.1 |   294M |  23 | 820 |1216 |3350 | 451k|  2 |1460 | 390 | 1.833375e+00 | 2.674804e+00 |  45.90%|  90.85%
  150s|  5200 |   196 |  1625k| 311.7 |   297M |  23 | 820 |1216 |2735 | 454k|  0 |1469 | 390 | 1.902203e+00 | 2.674804e+00 |  40.62%|  92.99%
 time | node  | left  |LP iter|LP it/n|mem/heur|mdpt |vars |cons |rows |cuts |sepa|confs|strbr|  dualbound   | primalbound  |  gap   | compl. 
  152s|  5300 |   138 |  1638k| 308.4 |   299M |  23 | 820 |1216 |3613 | 457k|  6 |1481 | 390 | 2.043703e+00 | 2.674804e+00 |  30.88%|  94.57%
  154s|  5400 |    84 |  1654k| 305.5 |   303M |  23 | 820 |1216 |2485 | 460k|  0 |1491 | 391 | 2.093975e+00 | 2.674804e+00 |  27.74%|  96.44%
  156s|  5500 |     6 |  1664k| 301.8 |   304M |  23 | 820 |1194 |9022 | 462k|  0 |1507 | 396 | 2.322614e+00 | 2.674804e+00 |  15.16%|  99.53%

SCIP Status        : problem is solved [optimal solution found]
Solving Time (sec) : 155.72
Solving Nodes      : 5506
Primal Bound       : +2.67480368883758e+00 (10 solutions)
Dual Bound         : +2.67480368883758e+00
Gap                : 0.00 %


--- Reading solution for model GAMS_MODEL
***
*** Solver did not provide marginals for model GAMS_MODEL
***
--- Executing after solve: elapsed 0:02:35.822
--- model.gms(3774) 4 Mb
--- model.gms(5519) 6 Mb
--- Putfile results /local/scratch/a/sgusev/repos/k_means/data/gams_scip_gdp.hull_exact_conic_no_cholesky/no_mode/2026-02-16_01-05-15/original/results.dat
--- Putfile statresults /local/scratch/a/sgusev/repos/k_means/data/gams_scip_gdp.hull_exact_conic_no_cholesky/no_mode/2026-02-16_01-05-15/original/resultsstat.dat
*** Status: Normal completion
--- Job model.gms Stop 02/16/26 01:07:51 elapsed 0:02:35.825
Original problem solved. Time taken: 156.43387913703918 seconds
Original objective value: 2.674803688837577
